;; Mutation-Based Equivalence Benchmark
;; Source:     AutomatArk / instance09517.smt2
;; Mutations:  range_shrink_hi, range_shrink_hi, literal_char_dec
;; Status:     sat
;;
;; Original regex vs mutated regex
;; Equivalence check: unsat ⟺ L(R1) = L(R2)

(set-info :smt-lib-version 2.6)
(set-info :category "mutation")
(set-info :status sat)
(set-logic QF_S)


;; R1: original
;; R2: mutated (range_shrink_hi, range_shrink_hi, literal_char_dec)
(assert
  (not
    (=
      (re.++ (re.union (re.range "1" "9") (re.++ (re.range "1" "9") (re.range "0" "9")) (re.++ (str.to_re "1") (re.range "0" "9") (re.range "0" "9")) (re.++ (str.to_re "2") (re.range "0" "4") (re.range "0" "9")) (re.++ (str.to_re "25") (re.range "0" "5"))) ((_ re.loop 3 3) (re.++ (str.to_re ".") (re.union (re.range "0" "9") (re.++ (re.range "1" "9") (re.range "0" "9")) (re.++ (str.to_re "1") (re.range "0" "9") (re.range "0" "9")) (re.++ (str.to_re "2") (re.range "0" "4") (re.range "0" "9")) (re.++ (str.to_re "25") (re.range "0" "5"))))) (str.to_re "\u{a}"))
      (re.++ (re.union (re.range "1" "9") (re.++ (re.range "1" "9") (re.range "0" "9")) (re.++ (str.to_re "1") (re.range "0" "9") (re.range "0" "9")) (re.++ (str.to_re "1") (re.range "0" "4") (re.range "0" "9")) (re.++ (str.to_re "25") (re.range "0" "5"))) ((_ re.loop 3 3) (re.++ (str.to_re ".") (re.union (re.range "0" "8") (re.++ (re.range "1" "9") (re.range "0" "9")) (re.++ (str.to_re "1") (re.range "0" "9") (re.range "0" "9")) (re.++ (str.to_re "2") (re.range "0" "4") (re.range "0" "9")) (re.++ (str.to_re "25") (re.range "0" "4"))))) (str.to_re "\u{a}")))))

(check-sat)
(exit)
